Maximize
F 

Subject to
F - 15y175 - 15y62 - 20y232 - 15y111 - 10y266 - 20y282 - 20y19 - 20y25 - 15y233 - 10y149 - 20y205 - 5y30 - 10y55 - 5y177 - 5y80 - 10y2 - 20y229 - 5y48 - 20y64 - 5y250 - 5y133 - 15y269 - 10y209 - 5y287 - 10y1 = 0

x164x209x1 + x164x1x1 
<= 1
x230x209x1 + x230x1x1 
<= 2
x75x282x1 + x75x269x1 + x75x209x1 + x75x1x1 
<= 1
x7x1x1 
<= 2
x23x282x1 + x23x149x1 + x23x205x1 + x23x55x1 + x23x177x1 + x23x80x1 + x23x229x1 + x23x64x1 + x23x250x1 + x23x269x1 + x23x209x1 + x23x1x1 
<= 1
x238x175x2 + x238x62x2 + x238x25x2 + x238x30x2 + x238x80x2 + x238x48x2 + x238x133x2 + x238x287x2 
<= 1
x186x287x2 
<= 2
x129x287x2 
<= 1
x128x133x2 + x128x287x2 
<= 1
x164x287x2 
<= 1
x75x25x2 + x75x287x2 
<= 1
x20x62x2 + x20x25x2 + x20x30x2 + x20x80x2 + x20x48x2 + x20x133x2 + x20x287x2 
<= 1

x129x209x3 + x129x1x3 
<= 1
x128x133x3 + x128x209x3 + x128x1x3 
<= 1
x23x62x3 + x23x266x3 + x23x19x3 + x23x205x3 + x23x2x3 + x23x229x3 + x23x64x3 + x23x250x3 + x23x133x3 + x23x209x3 + x23x1x3 
<= 1
x20x62x3 + x20x266x3 + x20x19x3 + x20x205x3 + x20x2x3 + x20x229x3 + x20x64x3 + x20x250x3 + x20x133x3 + x20x209x3 + x20x1x3 
<= 1


x238x175x2 
- x175x0x2
- x175x48x2 - x175x133x2 - x175x287x2 
= 0



x238x62x2 + x20x62x2 
- x62x0x2
- x62x25x2 - x62x287x2 
= 0
x23x62x3 + x20x62x3 
- x62x0x3
- x62x266x3 - x62x19x3 - x62x209x3 - x62x1x3 
= 0


- x232x229x1 - x232x64x1 - x232x250x1 - x232x269x1 - x232x209x1 - x232x1x1 
= 0


- x232x229x3 - x232x64x3 - x232x250x3 - x232x133x3 - x232x209x3 - x232x1x3 
= 0


- x111x229x1 - x111x64x1 - x111x250x1 - x111x269x1 - x111x209x1 - x111x1x1 
= 0





x23x266x3 + x20x266x3 + x62x266x3 
- x266x0x3
- x266x19x3 - x266x209x3 - x266x1x3 
= 0

x75x282x1 + x23x282x1 
- x282x0x1
- x282x269x1 - x282x209x1 - x282x1x1 
= 0





x23x19x3 + x20x19x3 + x62x19x3 + x266x19x3 
- x19x0x3
- x19x209x3 - x19x1x3 
= 0


x238x25x2 + x75x25x2 + x20x25x2 + x62x25x2 
- x25x0x2
- x25x287x2 
= 0



- x233x149x1 - x233x205x1 - x233x55x1 - x233x177x1 - x233x80x1 - x233x229x1 - x233x64x1 - x233x250x1 - x233x269x1 - x233x209x1 - x233x1x1 
= 0



x23x149x1 + x233x149x1 
- x149x0x1
- x149x205x1 - x149x55x1 - x149x177x1 - x149x80x1 - x149x229x1 - x149x64x1 - x149x250x1 - x149x269x1 - x149x209x1 - x149x1x1 
= 0



x23x205x1 + x233x205x1 + x149x205x1 
- x205x0x1
- x205x55x1 - x205x177x1 - x205x80x1 - x205x229x1 - x205x64x1 - x205x250x1 - x205x269x1 - x205x209x1 - x205x1x1 
= 0

x23x205x3 + x20x205x3 
- x205x0x3
- x205x2x3 - x205x229x3 - x205x64x3 - x205x250x3 - x205x133x3 - x205x209x3 - x205x1x3 
= 0


x238x30x2 + x20x30x2 
- x30x0x2
- x30x80x2 - x30x48x2 - x30x133x2 - x30x287x2 
= 0


x23x55x1 + x233x55x1 + x149x55x1 + x205x55x1 
- x55x0x1
- x55x229x1 - x55x64x1 - x55x250x1 - x55x269x1 - x55x209x1 - x55x1x1 
= 0



x23x177x1 + x233x177x1 + x149x177x1 + x205x177x1 
- x177x0x1
- x177x229x1 - x177x64x1 - x177x250x1 - x177x269x1 - x177x209x1 - x177x1x1 
= 0



x23x80x1 + x233x80x1 + x149x80x1 + x205x80x1 
- x80x0x1
- x80x229x1 - x80x64x1 - x80x250x1 - x80x269x1 - x80x209x1 - x80x1x1 
= 0
x238x80x2 + x20x80x2 + x30x80x2 
- x80x0x2
- x80x48x2 - x80x133x2 - x80x287x2 
= 0




x23x2x3 + x20x2x3 + x205x2x3 
- x2x0x3
- x2x229x3 - x2x64x3 - x2x250x3 - x2x133x3 - x2x209x3 - x2x1x3 
= 0

x23x229x1 + x232x229x1 + x111x229x1 + x233x229x1 + x149x229x1 + x205x229x1 + x55x229x1 + x177x229x1 + x80x229x1 
- x229x0x1
- x229x64x1 - x229x250x1 - x229x269x1 - x229x209x1 - x229x1x1 
= 0

x23x229x3 + x20x229x3 + x232x229x3 + x205x229x3 + x2x229x3 
- x229x0x3
- x229x64x3 - x229x250x3 - x229x133x3 - x229x209x3 - x229x1x3 
= 0


x238x48x2 + x20x48x2 + x175x48x2 + x30x48x2 + x80x48x2 
- x48x0x2
- x48x133x2 - x48x287x2 
= 0


x23x64x1 + x232x64x1 + x111x64x1 + x233x64x1 + x149x64x1 + x205x64x1 + x55x64x1 + x177x64x1 + x80x64x1 + x229x64x1 
- x64x0x1
- x64x250x1 - x64x269x1 - x64x209x1 
= 0

x23x64x3 + x20x64x3 + x232x64x3 + x205x64x3 + x2x64x3 + x229x64x3 
- x64x0x3
- x64x250x3 - x64x133x3 - x64x209x3 
= 0

x23x250x1 + x232x250x1 + x111x250x1 + x233x250x1 + x149x250x1 + x205x250x1 + x55x250x1 + x177x250x1 + x80x250x1 + x229x250x1 + x64x250x1 
- x250x0x1
- x250x269x1 - x250x209x1 
= 0

x23x250x3 + x20x250x3 + x232x250x3 + x205x250x3 + x2x250x3 + x229x250x3 + x64x250x3 
- x250x0x3
- x250x209x3 
= 0


x238x133x2 + x128x133x2 + x20x133x2 + x175x133x2 + x30x133x2 + x80x133x2 + x48x133x2 
- x133x0x2
- x133x287x2 
= 0
x128x133x3 + x23x133x3 + x20x133x3 + x232x133x3 + x205x133x3 + x2x133x3 + x229x133x3 + x64x133x3 
- x133x0x3
- x133x209x3 
= 0

x75x269x1 + x23x269x1 + x232x269x1 + x111x269x1 + x282x269x1 + x233x269x1 + x149x269x1 + x205x269x1 + x55x269x1 + x177x269x1 + x80x269x1 + x229x269x1 + x64x269x1 + x250x269x1 
- x269x0x1
- x269x209x1 
= 0



x164x209x1 + x230x209x1 + x75x209x1 + x23x209x1 + x232x209x1 + x111x209x1 + x282x209x1 + x233x209x1 + x149x209x1 + x205x209x1 + x55x209x1 + x177x209x1 + x80x209x1 + x229x209x1 + x64x209x1 + x250x209x1 + x269x209x1 
- x209x0x1

= 0

x129x209x3 + x128x209x3 + x23x209x3 + x20x209x3 + x62x209x3 + x232x209x3 + x266x209x3 + x19x209x3 + x205x209x3 + x2x209x3 + x229x209x3 + x64x209x3 + x250x209x3 + x133x209x3 
- x209x0x3

= 0


x238x287x2 + x186x287x2 + x129x287x2 + x128x287x2 + x164x287x2 + x75x287x2 + x20x287x2 + x175x287x2 + x62x287x2 + x25x287x2 + x30x287x2 + x80x287x2 + x48x287x2 + x133x287x2 
- x287x0x2

= 0


x164x1x1 + x230x1x1 + x75x1x1 + x7x1x1 + x23x1x1 + x232x1x1 + x111x1x1 + x282x1x1 + x233x1x1 + x149x1x1 + x205x1x1 + x55x1x1 + x177x1x1 + x80x1x1 + x229x1x1 
- x1x0x1

= 0

x129x1x3 + x128x1x3 + x23x1x3 + x20x1x3 + x62x1x3 + x232x1x3 + x266x1x3 + x19x1x3 + x205x1x3 + x2x1x3 + x229x1x3 
- x1x0x3

= 0

2y175 - x238x175x2 = 0
1y62 - x238x62x2 - x20x62x2 = 0
1y62 - x23x62x3 - x20x62x3 = 0
1y232 = 0
1y232 = 0
2y111 = 0
2y266 - x23x266x3 - x20x266x3 - x62x266x3 = 0
2y282 - x75x282x1 - x23x282x1 = 0
2y19 - x23x19x3 - x20x19x3 - x62x19x3 - x266x19x3 = 0
2y25 - x238x25x2 - x75x25x2 - x20x25x2 - x62x25x2 = 0
2y233 = 0
2y149 - x23x149x1 - x233x149x1 = 0
1y205 - x23x205x1 - x233x205x1 - x149x205x1 = 0
1y205 - x23x205x3 - x20x205x3 = 0
2y30 - x238x30x2 - x20x30x2 = 0
2y55 - x23x55x1 - x233x55x1 - x149x55x1 - x205x55x1 = 0
2y177 - x23x177x1 - x233x177x1 - x149x177x1 - x205x177x1 = 0
1y80 - x23x80x1 - x233x80x1 - x149x80x1 - x205x80x1 = 0
1y80 - x238x80x2 - x20x80x2 - x30x80x2 = 0
2y2 - x23x2x3 - x20x2x3 - x205x2x3 = 0
1y229 - x23x229x1 - x232x229x1 - x111x229x1 - x233x229x1 - x149x229x1 - x205x229x1 - x55x229x1 - x177x229x1 - x80x229x1 = 0
1y229 - x23x229x3 - x20x229x3 - x232x229x3 - x205x229x3 - x2x229x3 = 0
2y48 - x238x48x2 - x20x48x2 - x175x48x2 - x30x48x2 - x80x48x2 = 0
1y64 - x23x64x1 - x232x64x1 - x111x64x1 - x233x64x1 - x149x64x1 - x205x64x1 - x55x64x1 - x177x64x1 - x80x64x1 - x229x64x1 = 0
1y64 - x23x64x3 - x20x64x3 - x232x64x3 - x205x64x3 - x2x64x3 - x229x64x3 = 0
1y250 - x23x250x1 - x232x250x1 - x111x250x1 - x233x250x1 - x149x250x1 - x205x250x1 - x55x250x1 - x177x250x1 - x80x250x1 - x229x250x1 - x64x250x1 = 0
1y250 - x23x250x3 - x20x250x3 - x232x250x3 - x205x250x3 - x2x250x3 - x229x250x3 - x64x250x3 = 0
1y133 - x238x133x2 - x128x133x2 - x20x133x2 - x175x133x2 - x30x133x2 - x80x133x2 - x48x133x2 = 0
1y133 - x128x133x3 - x23x133x3 - x20x133x3 - x232x133x3 - x205x133x3 - x2x133x3 - x229x133x3 - x64x133x3 = 0
2y269 - x75x269x1 - x23x269x1 - x232x269x1 - x111x269x1 - x282x269x1 - x233x269x1 - x149x269x1 - x205x269x1 - x55x269x1 - x177x269x1 - x80x269x1 - x229x269x1 - x64x269x1 - x250x269x1 = 0
1y209 - x164x209x1 - x230x209x1 - x75x209x1 - x23x209x1 - x232x209x1 - x111x209x1 - x282x209x1 - x233x209x1 - x149x209x1 - x205x209x1 - x55x209x1 - x177x209x1 - x80x209x1 - x229x209x1 - x64x209x1 - x250x209x1 - x269x209x1 = 0
1y209 - x129x209x3 - x128x209x3 - x23x209x3 - x20x209x3 - x62x209x3 - x232x209x3 - x266x209x3 - x19x209x3 - x205x209x3 - x2x209x3 - x229x209x3 - x64x209x3 - x250x209x3 - x133x209x3 = 0
2y287 - x238x287x2 - x186x287x2 - x129x287x2 - x128x287x2 - x164x287x2 - x75x287x2 - x20x287x2 - x175x287x2 - x62x287x2 - x25x287x2 - x30x287x2 - x80x287x2 - x48x287x2 - x133x287x2 = 0
1y1 - x164x1x1 - x230x1x1 - x75x1x1 - x7x1x1 - x23x1x1 - x232x1x1 - x111x1x1 - x282x1x1 - x233x1x1 - x149x1x1 - x205x1x1 - x55x1x1 - x177x1x1 - x80x1x1 - x229x1x1 = 0
1y1 - x129x1x3 - x128x1x3 - x23x1x3 - x20x1x3 - x62x1x3 - x232x1x3 - x266x1x3 - x19x1x3 - x205x1x3 - x2x1x3 - x229x1x3 = 0

s238 - s175 + 8.428255z238z175z2 <= 7.10
s238 - s62 + 8.240520z238z62z2 <= 7.10
s238 - s25 + 8.255948z238z25z2 <= 7.10
s238 - s30 + 8.584131z238z30z2 <= 7.10
s238 - s80 + 8.591305z238z80z2 <= 7.10
s238 - s48 + 8.600960z238z48z2 <= 7.10
s238 - s133 + 8.605741z238z133z2 <= 7.10
s238 - s287 + 8.704714z238z287z2 <= 7.10
s186 - s287 + 9.286000z186z287z2 <= 7.78
s129 - s209 + 9.388754z129z209z3 <= 7.87
s129 - s287 + 9.393101z129z287z2 <= 7.87
s129 - s1 + 9.223776z129z1z3 <= 7.87
s128 - s133 + 9.044375z128z133z2 <= 7.58
s128 - s133 + 9.044375z128z133z3 <= 7.58
s128 - s209 + 9.091099z128z209z3 <= 7.58
s128 - s287 + 9.095115z128z287z2 <= 7.58
s128 - s1 + 8.926837z128z1z3 <= 7.58
s164 - s209 + 9.411655z164z209z1 <= 7.88
s164 - s287 + 9.415515z164z287z2 <= 7.88
s164 - s1 + 9.229063z164z1z1 <= 7.88
s230 - s209 + 9.275793z230z209z1 <= 7.87
s230 - s1 + 9.108624z230z1z1 <= 7.87
s75 - s282 + 8.560997z75z282z1 <= 7.53
s75 - s25 + 8.568323z75z25z2 <= 7.53
s75 - s269 + 9.159506z75z269z1 <= 7.53
s75 - s209 + 9.205581z75z209z1 <= 7.53
s75 - s287 + 9.211710z75z287z2 <= 7.53
s75 - s1 + 9.008413z75z1z1 <= 7.53
s7 - s1 + 9.465147z7z1z1 <= 8.27
s23 - s62 + 8.422245z23z62z3 <= 7.27
s23 - s266 + 8.428394z23z266z3 <= 7.27
s23 - s282 + 8.430207z23z282z1 <= 7.27
s23 - s19 + 8.432274z23z19z3 <= 7.27
s23 - s149 + 8.748910z23z149z1 <= 7.27
s23 - s205 + 8.752746z23z205z1 <= 7.27
s23 - s205 + 8.752746z23z205z3 <= 7.27
s23 - s55 + 8.768684z23z55z1 <= 7.27
s23 - s177 + 8.759918z23z177z1 <= 7.27
s23 - s80 + 8.765959z23z80z1 <= 7.27
s23 - s2 + 8.767479z23z2z3 <= 7.27
s23 - s229 + 8.778042z23z229z1 <= 7.27
s23 - s229 + 8.778042z23z229z3 <= 7.27
s23 - s64 + 8.780659z23z64z1 <= 7.27
s23 - s64 + 8.780659z23z64z3 <= 7.27
s23 - s250 + 8.788603z23z250z1 <= 7.27
s23 - s250 + 8.788603z23z250z3 <= 7.27
s23 - s133 + 8.778741z23z133z3 <= 7.27
s23 - s269 + 8.802763z23z269z1 <= 7.27
s23 - s209 + 8.873327z23z209z1 <= 7.27
s23 - s209 + 8.873327z23z209z3 <= 7.27
s23 - s1 + 8.799458z23z1z1 <= 7.27
s23 - s1 + 8.799458z23z1z3 <= 7.27
s20 - s62 + 8.419091z20z62z2 <= 7.27
s20 - s62 + 8.419091z20z62z3 <= 7.27
s20 - s266 + 8.424904z20z266z3 <= 7.27
s20 - s19 + 8.428943z20z19z3 <= 7.27
s20 - s25 + 8.431345z20z25z2 <= 7.27
s20 - s205 + 8.761143z20z205z3 <= 7.27
s20 - s30 + 8.767563z20z30z2 <= 7.27
s20 - s80 + 8.774301z20z80z2 <= 7.27
s20 - s2 + 8.775893z20z2z3 <= 7.27
s20 - s229 + 8.786257z20z229z3 <= 7.27
s20 - s48 + 8.783217z20z48z2 <= 7.27
s20 - s64 + 8.789020z20z64z3 <= 7.27
s20 - s250 + 8.796882z20z250z3 <= 7.27
s20 - s133 + 8.787381z20z133z2 <= 7.27
s20 - s133 + 8.787381z20z133z3 <= 7.27
s20 - s209 + 8.881010z20z209z3 <= 7.27
s20 - s287 + 8.890582z20z287z2 <= 7.27
s20 - s1 + 8.801189z20z1z3 <= 7.27
s175 - s48 + 9.915022z175z48z2 <= 8.47
s175 - s133 + 9.930338z175z133z2 <= 8.47
s175 - s287 + 9.921221z175z287z2 <= 8.47
s62 - s266 + 9.514037z62z266z3 <= 8.49
s62 - s19 + 9.504907z62z19z3 <= 8.49
s62 - s25 + 9.518284z62z25z2 <= 8.49
s62 - s209 + 10.164948z62z209z3 <= 8.49
s62 - s287 + 10.170523z62z287z2 <= 8.49
s62 - s1 + 9.951735z62z1z3 <= 8.49
s232 - s229 + 9.901386z232z229z1 <= 8.50
s232 - s229 + 9.901386z232z229z3 <= 8.50
s232 - s64 + 9.917240z232z64z1 <= 8.50
s232 - s64 + 9.917240z232z64z3 <= 8.50
s232 - s250 + 9.914461z232z250z1 <= 8.50
s232 - s250 + 9.914461z232z250z3 <= 8.50
s232 - s133 + 9.945072z232z133z3 <= 8.50
s232 - s269 + 9.960820z232z269z1 <= 8.50
s232 - s209 + 9.921321z232z209z1 <= 8.50
s232 - s209 + 9.921321z232z209z3 <= 8.50
s232 - s1 + 9.665597z232z1z1 <= 8.50
s232 - s1 + 9.665597z232z1z3 <= 8.50
s111 - s229 + 9.907772z111z229z1 <= 8.51
s111 - s64 + 9.923978z111z64z1 <= 8.51
s111 - s250 + 9.920745z111z250z1 <= 8.51
s111 - s269 + 9.967870z111z269z1 <= 8.51
s111 - s209 + 9.923817z111z209z1 <= 8.51
s111 - s1 + 9.670278z111z1z1 <= 8.51
s266 - s19 + 9.573334z266z19z3 <= 8.56
s266 - s209 + 10.257073z266z209z3 <= 8.56
s266 - s1 + 10.042954z266z1z3 <= 8.56
s282 - s269 + 10.229992z282z269z1 <= 8.58
s282 - s209 + 10.273397z282z209z1 <= 8.58
s282 - s1 + 10.056329z282z1z1 <= 8.58
s19 - s209 + 10.279766z19z209z3 <= 8.59
s19 - s1 + 10.059705z19z1z3 <= 8.59
s25 - s287 + 10.328362z25z287z2 <= 8.62
s233 - s149 + 9.719999z233z149z1 <= 8.70
s233 - s205 + 9.726666z233z205z1 <= 8.70
s233 - s55 + 9.753333z233z55z1 <= 8.70
s233 - s177 + 9.724037z233z177z1 <= 8.70
s233 - s80 + 9.740552z233z80z1 <= 8.70
s233 - s229 + 9.760369z233z229z1 <= 8.70
s233 - s64 + 9.750772z233z64z1 <= 8.70
s233 - s250 + 9.763246z233z250z1 <= 8.70
s233 - s269 + 9.765659z233z269z1 <= 8.70
s233 - s209 + 9.876509z233z209z1 <= 8.70
s233 - s1 + 10.260793z233z1z1 <= 8.70
s149 - s205 + 9.766666z149z205z1 <= 8.76
s149 - s55 + 9.793333z149z55z1 <= 8.76
s149 - s177 + 9.773334z149z177z1 <= 8.76
s149 - s80 + 9.781082z149z80z1 <= 8.76
s149 - s229 + 9.800552z149z229z1 <= 8.76
s149 - s64 + 9.793333z149z64z1 <= 8.76
s149 - s250 + 9.804722z149z250z1 <= 8.76
s149 - s269 + 9.820370z149z269z1 <= 8.76
s149 - s209 + 9.916915z149z209z1 <= 8.76
s149 - s1 + 10.311563z149z1z1 <= 8.76
s205 - s55 + 9.806666z205z55z1 <= 8.78
s205 - s177 + 9.794907z205z177z1 <= 8.78
s205 - s80 + 9.794907z205z80z1 <= 8.78
s205 - s2 + 9.794907z205z2z3 <= 8.78
s205 - s229 + 9.813993z205z229z1 <= 8.78
s205 - s229 + 9.813993z205z229z3 <= 8.78
s205 - s64 + 9.808284z205z64z1 <= 8.78
s205 - s64 + 9.808284z205z64z3 <= 8.78
s205 - s250 + 9.818872z205z250z1 <= 8.78
s205 - s250 + 9.818872z205z250z3 <= 8.78
s205 - s133 + 9.822164z205z133z3 <= 8.78
s205 - s269 + 9.840000z205z269z1 <= 8.78
s205 - s209 + 9.930407z205z209z1 <= 8.78
s205 - s209 + 9.930407z205z209z3 <= 8.78
s205 - s1 + 10.328614z205z1z1 <= 8.78
s205 - s1 + 10.328614z205z1z3 <= 8.78
s30 - s80 + 9.804907z30z80z2 <= 8.79
s30 - s48 + 9.828873z30z48z2 <= 8.79
s30 - s133 + 9.847349z30z133z2 <= 8.79
s30 - s287 + 9.940407z30z287z2 <= 8.79
s55 - s229 + 9.869428z55z229z1 <= 8.86
s55 - s64 + 9.881082z55z64z1 <= 8.86
s55 - s250 + 9.881082z55z250z1 <= 8.86
s55 - s269 + 9.925659z55z269z1 <= 8.86
s55 - s209 + 9.984543z55z209z1 <= 8.86
s55 - s1 + 10.397484z55z1z1 <= 8.86
s177 - s229 + 9.900552z177z229z1 <= 8.86
s177 - s64 + 9.887487z177z64z1 <= 8.86
s177 - s250 + 9.900552z177z250z1 <= 8.86
s177 - s269 + 9.907140z177z269z1 <= 8.86
s177 - s209 + 10.014632z177z209z1 <= 8.86
s177 - s1 + 10.423520z177z1z1 <= 8.86
s80 - s229 + 9.889999z80z229z1 <= 8.87
s80 - s48 + 9.894037z80z48z2 <= 8.87
s80 - s64 + 9.884907z80z64z1 <= 8.87
s80 - s250 + 9.894037z80z250z1 <= 8.87
s80 - s133 + 9.912687z80z133z2 <= 8.87
s80 - s269 + 9.924974z80z269z1 <= 8.87
s80 - s209 + 10.005974z80z209z1 <= 8.87
s80 - s287 + 10.024632z80z287z2 <= 8.87
s80 - s1 + 10.418979z80z1z1 <= 8.87
s2 - s229 + 9.927487z2z229z3 <= 8.90
s2 - s64 + 9.914907z2z64z3 <= 8.90
s2 - s250 + 9.927487z2z250z3 <= 8.90
s2 - s133 + 9.933332z2z133z3 <= 8.90
s2 - s209 + 10.041421z2z209z3 <= 8.90
s2 - s1 + 10.457813z2z1z3 <= 8.90
s229 - s64 + 9.948856z229z64z1 <= 8.93
s229 - s64 + 9.948856z229z64z3 <= 8.93
s229 - s250 + 9.943334z229z250z1 <= 8.93
s229 - s250 + 9.943334z229z250z3 <= 8.93
s229 - s133 + 9.987350z229z133z3 <= 8.93
s229 - s269 + 9.992893z229z269z1 <= 8.93
s229 - s209 + 10.046429z229z209z1 <= 8.93
s229 - s209 + 10.046429z229z209z3 <= 8.93
s229 - s1 + 10.471028z229z1z1 <= 8.93
s229 - s1 + 10.471028z229z1z3 <= 8.93
s48 - s133 + 10.008856z48z133z2 <= 8.99
s48 - s287 + 10.156667z48z287z2 <= 8.99
s64 - s250 + 10.003333z64z250z1 <= 8.99
s64 - s250 + 10.003333z64z250z3 <= 8.99
s64 - s133 + 10.028872z64z133z3 <= 8.99
s64 - s269 + 10.034721z64z269z1 <= 8.99
s64 - s209 + 10.117367z64z209z1 <= 8.99
s64 - s209 + 10.117367z64z209z3 <= 8.99
s250 - s269 + 10.082068z250z269z1 <= 9.03
s250 - s209 + 10.144114z250z209z1 <= 9.03
s250 - s209 + 10.144114z250z209z3 <= 9.03
s133 - s209 + 10.230139z133z209z3 <= 9.07
s133 - s287 + 10.250493z133z287z2 <= 9.07
s269 - s209 + 10.429071z269z209z1 <= 9.28

x238x175x2 - 2z238z175z2 <= 0
x238x62x2 - 1z238z62z2 <= 0
x238x25x2 - 2z238z25z2 <= 0
x238x30x2 - 2z238z30z2 <= 0
x238x80x2 - 1z238z80z2 <= 0
x238x48x2 - 2z238z48z2 <= 0
x238x133x2 - 1z238z133z2 <= 0
x238x287x2 - 2z238z287z2 <= 0
x186x287x2 - 2z186z287z2 <= 0
x129x209x3 - 1z129z209z3 <= 0
x129x287x2 - 2z129z287z2 <= 0
x129x1x3 - 1z129z1z3 <= 0
x128x133x2 - 1z128z133z2 <= 0
x128x133x3 - 1z128z133z3 <= 0
x128x209x3 - 1z128z209z3 <= 0
x128x287x2 - 2z128z287z2 <= 0
x128x1x3 - 1z128z1z3 <= 0
x164x209x1 - 1z164z209z1 <= 0
x164x287x2 - 2z164z287z2 <= 0
x164x1x1 - 1z164z1z1 <= 0
x230x209x1 - 1z230z209z1 <= 0
x230x1x1 - 1z230z1z1 <= 0
x75x282x1 - 2z75z282z1 <= 0
x75x25x2 - 2z75z25z2 <= 0
x75x269x1 - 2z75z269z1 <= 0
x75x209x1 - 1z75z209z1 <= 0
x75x287x2 - 2z75z287z2 <= 0
x75x1x1 - 1z75z1z1 <= 0
x7x1x1 - 1z7z1z1 <= 0
x23x62x3 - 1z23z62z3 <= 0
x23x266x3 - 2z23z266z3 <= 0
x23x282x1 - 2z23z282z1 <= 0
x23x19x3 - 2z23z19z3 <= 0
x23x149x1 - 2z23z149z1 <= 0
x23x205x1 - 1z23z205z1 <= 0
x23x205x3 - 1z23z205z3 <= 0
x23x55x1 - 2z23z55z1 <= 0
x23x177x1 - 2z23z177z1 <= 0
x23x80x1 - 1z23z80z1 <= 0
x23x2x3 - 2z23z2z3 <= 0
x23x229x1 - 1z23z229z1 <= 0
x23x229x3 - 1z23z229z3 <= 0
x23x64x1 - 1z23z64z1 <= 0
x23x64x3 - 1z23z64z3 <= 0
x23x250x1 - 1z23z250z1 <= 0
x23x250x3 - 1z23z250z3 <= 0
x23x133x3 - 1z23z133z3 <= 0
x23x269x1 - 2z23z269z1 <= 0
x23x209x1 - 1z23z209z1 <= 0
x23x209x3 - 1z23z209z3 <= 0
x23x1x1 - 1z23z1z1 <= 0
x23x1x3 - 1z23z1z3 <= 0
x20x62x2 - 1z20z62z2 <= 0
x20x62x3 - 1z20z62z3 <= 0
x20x266x3 - 2z20z266z3 <= 0
x20x19x3 - 2z20z19z3 <= 0
x20x25x2 - 2z20z25z2 <= 0
x20x205x3 - 1z20z205z3 <= 0
x20x30x2 - 2z20z30z2 <= 0
x20x80x2 - 1z20z80z2 <= 0
x20x2x3 - 2z20z2z3 <= 0
x20x229x3 - 1z20z229z3 <= 0
x20x48x2 - 2z20z48z2 <= 0
x20x64x3 - 1z20z64z3 <= 0
x20x250x3 - 1z20z250z3 <= 0
x20x133x2 - 1z20z133z2 <= 0
x20x133x3 - 1z20z133z3 <= 0
x20x209x3 - 1z20z209z3 <= 0
x20x287x2 - 2z20z287z2 <= 0
x20x1x3 - 1z20z1z3 <= 0
x175x48x2 - 2z175z48z2 <= 0
x175x133x2 - 1z175z133z2 <= 0
x175x287x2 - 2z175z287z2 <= 0
x175x0x2 <= 2
x62x266x3 - 2z62z266z3 <= 0
x62x19x3 - 2z62z19z3 <= 0
x62x25x2 - 2z62z25z2 <= 0
x62x209x3 - 1z62z209z3 <= 0
x62x287x2 - 2z62z287z2 <= 0
x62x1x3 - 1z62z1z3 <= 0
x62x0x2 <= 1
x62x0x3 <= 1
x232x229x1 - 1z232z229z1 <= 0
x232x229x3 - 1z232z229z3 <= 0
x232x64x1 - 1z232z64z1 <= 0
x232x64x3 - 1z232z64z3 <= 0
x232x250x1 - 1z232z250z1 <= 0
x232x250x3 - 1z232z250z3 <= 0
x232x133x3 - 1z232z133z3 <= 0
x232x269x1 - 2z232z269z1 <= 0
x232x209x1 - 1z232z209z1 <= 0
x232x209x3 - 1z232z209z3 <= 0
x232x1x1 - 1z232z1z1 <= 0
x232x1x3 - 1z232z1z3 <= 0
x232x0x1 <= 1
x232x0x3 <= 1
x111x229x1 - 1z111z229z1 <= 0
x111x64x1 - 1z111z64z1 <= 0
x111x250x1 - 1z111z250z1 <= 0
x111x269x1 - 2z111z269z1 <= 0
x111x209x1 - 1z111z209z1 <= 0
x111x1x1 - 1z111z1z1 <= 0
x111x0x1 <= 2
x266x19x3 - 2z266z19z3 <= 0
x266x209x3 - 1z266z209z3 <= 0
x266x1x3 - 1z266z1z3 <= 0
x266x0x3 <= 2
x282x269x1 - 2z282z269z1 <= 0
x282x209x1 - 1z282z209z1 <= 0
x282x1x1 - 1z282z1z1 <= 0
x282x0x1 <= 2
x19x209x3 - 1z19z209z3 <= 0
x19x1x3 - 1z19z1z3 <= 0
x19x0x3 <= 2
x25x287x2 - 2z25z287z2 <= 0
x25x0x2 <= 2
x233x149x1 - 2z233z149z1 <= 0
x233x205x1 - 1z233z205z1 <= 0
x233x55x1 - 2z233z55z1 <= 0
x233x177x1 - 2z233z177z1 <= 0
x233x80x1 - 1z233z80z1 <= 0
x233x229x1 - 1z233z229z1 <= 0
x233x64x1 - 1z233z64z1 <= 0
x233x250x1 - 1z233z250z1 <= 0
x233x269x1 - 2z233z269z1 <= 0
x233x209x1 - 1z233z209z1 <= 0
x233x1x1 - 1z233z1z1 <= 0
x233x0x1 <= 2
x149x205x1 - 1z149z205z1 <= 0
x149x55x1 - 2z149z55z1 <= 0
x149x177x1 - 2z149z177z1 <= 0
x149x80x1 - 1z149z80z1 <= 0
x149x229x1 - 1z149z229z1 <= 0
x149x64x1 - 1z149z64z1 <= 0
x149x250x1 - 1z149z250z1 <= 0
x149x269x1 - 2z149z269z1 <= 0
x149x209x1 - 1z149z209z1 <= 0
x149x1x1 - 1z149z1z1 <= 0
x149x0x1 <= 2
x205x55x1 - 2z205z55z1 <= 0
x205x177x1 - 2z205z177z1 <= 0
x205x80x1 - 1z205z80z1 <= 0
x205x2x3 - 2z205z2z3 <= 0
x205x229x1 - 1z205z229z1 <= 0
x205x229x3 - 1z205z229z3 <= 0
x205x64x1 - 1z205z64z1 <= 0
x205x64x3 - 1z205z64z3 <= 0
x205x250x1 - 1z205z250z1 <= 0
x205x250x3 - 1z205z250z3 <= 0
x205x133x3 - 1z205z133z3 <= 0
x205x269x1 - 2z205z269z1 <= 0
x205x209x1 - 1z205z209z1 <= 0
x205x209x3 - 1z205z209z3 <= 0
x205x1x1 - 1z205z1z1 <= 0
x205x1x3 - 1z205z1z3 <= 0
x205x0x1 <= 1
x205x0x3 <= 1
x30x80x2 - 1z30z80z2 <= 0
x30x48x2 - 2z30z48z2 <= 0
x30x133x2 - 1z30z133z2 <= 0
x30x287x2 - 2z30z287z2 <= 0
x30x0x2 <= 2
x55x229x1 - 1z55z229z1 <= 0
x55x64x1 - 1z55z64z1 <= 0
x55x250x1 - 1z55z250z1 <= 0
x55x269x1 - 2z55z269z1 <= 0
x55x209x1 - 1z55z209z1 <= 0
x55x1x1 - 1z55z1z1 <= 0
x55x0x1 <= 2
x177x229x1 - 1z177z229z1 <= 0
x177x64x1 - 1z177z64z1 <= 0
x177x250x1 - 1z177z250z1 <= 0
x177x269x1 - 2z177z269z1 <= 0
x177x209x1 - 1z177z209z1 <= 0
x177x1x1 - 1z177z1z1 <= 0
x177x0x1 <= 2
x80x229x1 - 1z80z229z1 <= 0
x80x48x2 - 2z80z48z2 <= 0
x80x64x1 - 1z80z64z1 <= 0
x80x250x1 - 1z80z250z1 <= 0
x80x133x2 - 1z80z133z2 <= 0
x80x269x1 - 2z80z269z1 <= 0
x80x209x1 - 1z80z209z1 <= 0
x80x287x2 - 2z80z287z2 <= 0
x80x1x1 - 1z80z1z1 <= 0
x80x0x1 <= 1
x80x0x2 <= 1
x2x229x3 - 1z2z229z3 <= 0
x2x64x3 - 1z2z64z3 <= 0
x2x250x3 - 1z2z250z3 <= 0
x2x133x3 - 1z2z133z3 <= 0
x2x209x3 - 1z2z209z3 <= 0
x2x1x3 - 1z2z1z3 <= 0
x2x0x3 <= 2
x229x64x1 - 1z229z64z1 <= 0
x229x64x3 - 1z229z64z3 <= 0
x229x250x1 - 1z229z250z1 <= 0
x229x250x3 - 1z229z250z3 <= 0
x229x133x3 - 1z229z133z3 <= 0
x229x269x1 - 2z229z269z1 <= 0
x229x209x1 - 1z229z209z1 <= 0
x229x209x3 - 1z229z209z3 <= 0
x229x1x1 - 1z229z1z1 <= 0
x229x1x3 - 1z229z1z3 <= 0
x229x0x1 <= 1
x229x0x3 <= 1
x48x133x2 - 1z48z133z2 <= 0
x48x287x2 - 2z48z287z2 <= 0
x48x0x2 <= 2
x64x250x1 - 1z64z250z1 <= 0
x64x250x3 - 1z64z250z3 <= 0
x64x133x3 - 1z64z133z3 <= 0
x64x269x1 - 2z64z269z1 <= 0
x64x209x1 - 1z64z209z1 <= 0
x64x209x3 - 1z64z209z3 <= 0
x64x0x1 <= 1
x64x0x3 <= 1
x250x269x1 - 2z250z269z1 <= 0
x250x209x1 - 1z250z209z1 <= 0
x250x209x3 - 1z250z209z3 <= 0
x250x0x1 <= 1
x250x0x3 <= 1
x133x209x3 - 1z133z209z3 <= 0
x133x287x2 - 2z133z287z2 <= 0
x133x0x2 <= 1
x133x0x3 <= 1
x269x209x1 - 1z269z209z1 <= 0
x269x0x1 <= 2
x209x0x1 <= 1
x209x0x3 <= 1
x287x0x2 <= 2
x1x0x1 <= 1
x1x0x3 <= 1

Bounds
s238 = 7.101316
s186 = 7.777189
s129 = 7.869438
s128 = 7.584038
s164 = 7.883809
s230 = 7.868253
s33 = 8.124939
s150 = 8.269870
s75 = 7.534330
s7 = 8.271813
s162 = 8.234815
s141 = 8.161952
s23 = 7.269930
s20 = 7.272880
7.470000 <= s175 <= 8.470000
7.490000 <= s62 <= 8.490000
7.500000 <= s232 <= 8.500000
7.510000 <= s111 <= 8.510000
7.560000 <= s266 <= 8.560000
7.580000 <= s282 <= 8.580000
7.590000 <= s19 <= 8.590000
7.620000 <= s25 <= 8.620000
7.700000 <= s233 <= 8.700000
7.760000 <= s149 <= 8.760000
7.780000 <= s205 <= 8.780000
7.790000 <= s30 <= 8.790000
7.860000 <= s55 <= 8.860000
7.860000 <= s177 <= 8.860000
7.870000 <= s80 <= 8.870000
7.900000 <= s2 <= 8.900000
7.930000 <= s229 <= 8.930000
7.990000 <= s48 <= 8.990000
7.990000 <= s64 <= 8.990000
8.030000 <= s250 <= 9.030000
8.070000 <= s133 <= 9.070000
8.280000 <= s269 <= 9.280000
8.470000 <= s209 <= 9.470000
8.470000 <= s287 <= 9.470000
8.490000 <= s1 <= 9.490000

General
x238x175x2 x238x62x2 x238x25x2 x238x30x2 x238x80x2 x238x48x2 x238x133x2 x238x287x2 
x186x287x2 
x129x209x3 x129x287x2 x129x1x3 
x128x133x2 x128x133x3 x128x209x3 x128x287x2 x128x1x3 
x164x209x1 x164x287x2 x164x1x1 
x230x209x1 x230x1x1 


x75x282x1 x75x25x2 x75x269x1 x75x209x1 x75x287x2 x75x1x1 
x7x1x1 


x23x62x3 x23x266x3 x23x282x1 x23x19x3 x23x149x1 x23x205x1 x23x205x3 x23x55x1 x23x177x1 x23x80x1 x23x2x3 x23x229x1 x23x229x3 x23x64x1 x23x64x3 x23x250x1 x23x250x3 x23x133x3 x23x269x1 x23x209x1 x23x209x3 x23x1x1 x23x1x3 
x20x62x2 x20x62x3 x20x266x3 x20x19x3 x20x25x2 x20x205x3 x20x30x2 x20x80x2 x20x2x3 x20x229x3 x20x48x2 x20x64x3 x20x250x3 x20x133x2 x20x133x3 x20x209x3 x20x287x2 x20x1x3 
x175x48x2 x175x133x2 x175x287x2 x175x0x2 
x62x266x3 x62x19x3 x62x25x2 x62x209x3 x62x287x2 x62x1x3 x62x0x2 x62x0x3 
x232x229x1 x232x229x3 x232x64x1 x232x64x3 x232x250x1 x232x250x3 x232x133x3 x232x269x1 x232x209x1 x232x209x3 x232x1x1 x232x1x3 x232x0x1 x232x0x3 
x111x229x1 x111x64x1 x111x250x1 x111x269x1 x111x209x1 x111x1x1 x111x0x1 
x266x19x3 x266x209x3 x266x1x3 x266x0x3 
x282x269x1 x282x209x1 x282x1x1 x282x0x1 
x19x209x3 x19x1x3 x19x0x3 
x25x287x2 x25x0x2 
x233x149x1 x233x205x1 x233x55x1 x233x177x1 x233x80x1 x233x229x1 x233x64x1 x233x250x1 x233x269x1 x233x209x1 x233x1x1 x233x0x1 
x149x205x1 x149x55x1 x149x177x1 x149x80x1 x149x229x1 x149x64x1 x149x250x1 x149x269x1 x149x209x1 x149x1x1 x149x0x1 
x205x55x1 x205x177x1 x205x80x1 x205x2x3 x205x229x1 x205x229x3 x205x64x1 x205x64x3 x205x250x1 x205x250x3 x205x133x3 x205x269x1 x205x209x1 x205x209x3 x205x1x1 x205x1x3 x205x0x1 x205x0x3 
x30x80x2 x30x48x2 x30x133x2 x30x287x2 x30x0x2 
x55x229x1 x55x64x1 x55x250x1 x55x269x1 x55x209x1 x55x1x1 x55x0x1 
x177x229x1 x177x64x1 x177x250x1 x177x269x1 x177x209x1 x177x1x1 x177x0x1 
x80x229x1 x80x48x2 x80x64x1 x80x250x1 x80x133x2 x80x269x1 x80x209x1 x80x287x2 x80x1x1 x80x0x1 x80x0x2 
x2x229x3 x2x64x3 x2x250x3 x2x133x3 x2x209x3 x2x1x3 x2x0x3 
x229x64x1 x229x64x3 x229x250x1 x229x250x3 x229x133x3 x229x269x1 x229x209x1 x229x209x3 x229x1x1 x229x1x3 x229x0x1 x229x0x3 
x48x133x2 x48x287x2 x48x0x2 
x64x250x1 x64x250x3 x64x133x3 x64x269x1 x64x209x1 x64x209x3 x64x0x1 x64x0x3 
x250x269x1 x250x209x1 x250x209x3 x250x0x1 x250x0x3 
x133x209x3 x133x287x2 x133x0x2 x133x0x3 
x269x209x1 x269x0x1 
x209x0x1 x209x0x3 
x287x0x2 
x1x0x1 x1x0x3 

Binaries
y175 y62 y232 y111 y266 y282 y19 y25 y233 y149 y205 y30 y55 y177 y80 y2 y229 y48 y64 y250 y133 y269 y209 y287 y1 
z238z175z2 z238z62z2 z238z25z2 z238z30z2 z238z80z2 z238z48z2 z238z133z2 z238z287z2 
z186z287z2 
z129z209z3 z129z287z2 z129z1z3 
z128z133z2 z128z133z3 z128z209z3 z128z287z2 z128z1z3 
z164z209z1 z164z287z2 z164z1z1 
z230z209z1 z230z1z1 


z75z282z1 z75z25z2 z75z269z1 z75z209z1 z75z287z2 z75z1z1 
z7z1z1 


z23z62z3 z23z266z3 z23z282z1 z23z19z3 z23z149z1 z23z205z1 z23z205z3 z23z55z1 z23z177z1 z23z80z1 z23z2z3 z23z229z1 z23z229z3 z23z64z1 z23z64z3 z23z250z1 z23z250z3 z23z133z3 z23z269z1 z23z209z1 z23z209z3 z23z1z1 z23z1z3 
z20z62z2 z20z62z3 z20z266z3 z20z19z3 z20z25z2 z20z205z3 z20z30z2 z20z80z2 z20z2z3 z20z229z3 z20z48z2 z20z64z3 z20z250z3 z20z133z2 z20z133z3 z20z209z3 z20z287z2 z20z1z3 
z175z48z2 z175z133z2 z175z287z2 
z62z266z3 z62z19z3 z62z25z2 z62z209z3 z62z287z2 z62z1z3 
z232z229z1 z232z229z3 z232z64z1 z232z64z3 z232z250z1 z232z250z3 z232z133z3 z232z269z1 z232z209z1 z232z209z3 z232z1z1 z232z1z3 
z111z229z1 z111z64z1 z111z250z1 z111z269z1 z111z209z1 z111z1z1 
z266z19z3 z266z209z3 z266z1z3 
z282z269z1 z282z209z1 z282z1z1 
z19z209z3 z19z1z3 
z25z287z2 
z233z149z1 z233z205z1 z233z55z1 z233z177z1 z233z80z1 z233z229z1 z233z64z1 z233z250z1 z233z269z1 z233z209z1 z233z1z1 
z149z205z1 z149z55z1 z149z177z1 z149z80z1 z149z229z1 z149z64z1 z149z250z1 z149z269z1 z149z209z1 z149z1z1 
z205z55z1 z205z177z1 z205z80z1 z205z2z3 z205z229z1 z205z229z3 z205z64z1 z205z64z3 z205z250z1 z205z250z3 z205z133z3 z205z269z1 z205z209z1 z205z209z3 z205z1z1 z205z1z3 
z30z80z2 z30z48z2 z30z133z2 z30z287z2 
z55z229z1 z55z64z1 z55z250z1 z55z269z1 z55z209z1 z55z1z1 
z177z229z1 z177z64z1 z177z250z1 z177z269z1 z177z209z1 z177z1z1 
z80z229z1 z80z48z2 z80z64z1 z80z250z1 z80z133z2 z80z269z1 z80z209z1 z80z287z2 z80z1z1 
z2z229z3 z2z64z3 z2z250z3 z2z133z3 z2z209z3 z2z1z3 
z229z64z1 z229z64z3 z229z250z1 z229z250z3 z229z133z3 z229z269z1 z229z209z1 z229z209z3 z229z1z1 z229z1z3 
z48z133z2 z48z287z2 
z64z250z1 z64z250z3 z64z133z3 z64z269z1 z64z209z1 z64z209z3 
z250z269z1 z250z209z1 z250z209z3 
z133z209z3 z133z287z2 
z269z209z1 




End